NAME : XML100_3162_16
DIMENSION : 101
NB_CLUSTERS : 30
CLUSTERING_ALG : DBSCAN
CLUSTERING_PARAMS : eps(45), minSamples(3)
CLUSTERS
1 0
2 2 3 8 34 65 70 73 85 92
3 18 25 77
4 16 20 21 98
5 27 44 74 84 89
6 15 35 36 43 76 100
7 9 11 38 41 46 54 61 96
8 29 56 68
9 88 90
10 6 7 48
11 14 50
12 13 22 51 72 83
13 45 53 71 81 87
14 24 39
15 1 19 79 80
16 23 40 69
17 28 55 63 94
18 66 67 95
19 12 75 93 99
20 10 42
21 30 57
22 31 97
23 4 5 58 60
24 59 82
25 33 64
26 17 91
27 37 52
28 26 78
29 32 47 62
30 49 86
EOF